
(set-logic HORN)
(declare-datatypes ((Bool_385 0)) (((false_385) (true_385))))
(declare-fun diseqBool_176 (Bool_385 Bool_385) Bool)
(declare-fun isfalse_176 (Bool_385) Bool)
(declare-fun istrue_176 (Bool_385) Bool)
(assert (isfalse_176 false_385))
(assert (istrue_176 true_385))
(assert (diseqBool_176 false_385 true_385))
(assert (diseqBool_176 true_385 false_385))
(declare-fun and_386 (Bool_385 Bool_385 Bool_385) Bool)
(declare-fun or_398 (Bool_385 Bool_385 Bool_385) Bool)
(declare-fun hence_385 (Bool_385 Bool_385 Bool_385) Bool)
(declare-fun not_390 (Bool_385 Bool_385) Bool)
(assert (and_386 false_385 false_385 false_385))
(assert (and_386 false_385 true_385 false_385))
(assert (and_386 false_385 false_385 true_385))
(assert (and_386 true_385 true_385 true_385))
(assert (or_398 false_385 false_385 false_385))
(assert (or_398 true_385 true_385 false_385))
(assert (or_398 true_385 false_385 true_385))
(assert (or_398 true_385 true_385 true_385))
(assert (hence_385 true_385 false_385 false_385))
(assert (hence_385 false_385 true_385 false_385))
(assert (hence_385 true_385 false_385 true_385))
(assert (hence_385 true_385 true_385 true_385))
(assert (not_390 true_385 false_385))
(assert (not_390 false_385 true_385))
(declare-datatypes ((T_5 0)) (((A_67) (B_56) (C_31))))
(declare-fun diseqT_5 (T_5 T_5) Bool)
(declare-fun isA_12 (T_5) Bool)
(declare-fun isB_12 (T_5) Bool)
(declare-fun isC_12 (T_5) Bool)
(assert (isA_12 A_67))
(assert (isB_12 B_56))
(assert (isC_12 C_31))
(assert (diseqT_5 A_67 B_56))
(assert (diseqT_5 A_67 C_31))
(assert (diseqT_5 B_56 A_67))
(assert (diseqT_5 C_31 A_67))
(assert (diseqT_5 B_56 C_31))
(assert (diseqT_5 C_31 B_56))
(declare-datatypes ((list_305 0)) (((nil_337) (cons_302 (head_604 T_5) (tail_607 list_305)))))
(declare-fun diseqlist_302 (list_305 list_305) Bool)
(declare-fun head_605 (T_5 list_305) Bool)
(declare-fun tail_608 (list_305 list_305) Bool)
(declare-fun isnil_337 (list_305) Bool)
(declare-fun iscons_302 (list_305) Bool)
(assert (forall ((x_60188 T_5) (x_60189 list_305))
	(head_605 x_60188 (cons_302 x_60188 x_60189))))
(assert (forall ((x_60188 T_5) (x_60189 list_305))
	(tail_608 x_60189 (cons_302 x_60188 x_60189))))
(assert (isnil_337 nil_337))
(assert (forall ((x_60191 T_5) (x_60192 list_305))
	(iscons_302 (cons_302 x_60191 x_60192))))
(assert (forall ((x_60193 T_5) (x_60194 list_305))
	(diseqlist_302 nil_337 (cons_302 x_60193 x_60194))))
(assert (forall ((x_60195 T_5) (x_60196 list_305))
	(diseqlist_302 (cons_302 x_60195 x_60196) nil_337)))
(assert (forall ((x_60197 T_5) (x_60198 list_305) (x_60199 T_5) (x_60200 list_305))
	(=> (diseqT_5 x_60197 x_60199) (diseqlist_302 (cons_302 x_60197 x_60198) (cons_302 x_60199 x_60200)))))
(assert (forall ((x_60197 T_5) (x_60198 list_305) (x_60199 T_5) (x_60200 list_305))
	(=> (diseqlist_302 x_60198 x_60200) (diseqlist_302 (cons_302 x_60197 x_60198) (cons_302 x_60199 x_60200)))))
(declare-datatypes ((R_482 0)) (((Nil_338) (Eps_38) (Atom_19 (projAtom_38 T_5)) (x_60138 (proj_60 R_482) (proj_61 R_482)) (x_60139 (proj_62 R_482) (proj_63 R_482)) (Star_19 (projStar_38 R_482)))))
(declare-fun diseqR_19 (R_482 R_482) Bool)
(declare-fun projAtom_39 (T_5 R_482) Bool)
(declare-fun proj_64 (R_482 R_482) Bool)
(declare-fun proj_65 (R_482 R_482) Bool)
(declare-fun proj_66 (R_482 R_482) Bool)
(declare-fun proj_67 (R_482 R_482) Bool)
(declare-fun projStar_39 (R_482 R_482) Bool)
(declare-fun isNil_338 (R_482) Bool)
(declare-fun isEps_19 (R_482) Bool)
(declare-fun isAtom_19 (R_482) Bool)
(declare-fun isx_29 (R_482) Bool)
(declare-fun isx_30 (R_482) Bool)
(declare-fun isStar_19 (R_482) Bool)
(assert (forall ((x_60203 T_5))
	(projAtom_39 x_60203 (Atom_19 x_60203))))
(assert (forall ((x_60205 R_482) (x_60206 R_482))
	(proj_64 x_60205 (x_60138 x_60205 x_60206))))
(assert (forall ((x_60205 R_482) (x_60206 R_482))
	(proj_65 x_60206 (x_60138 x_60205 x_60206))))
(assert (forall ((x_60208 R_482) (x_60209 R_482))
	(proj_66 x_60208 (x_60139 x_60208 x_60209))))
(assert (forall ((x_60208 R_482) (x_60209 R_482))
	(proj_67 x_60209 (x_60139 x_60208 x_60209))))
(assert (forall ((x_60211 R_482))
	(projStar_39 x_60211 (Star_19 x_60211))))
(assert (isNil_338 Nil_338))
(assert (isEps_19 Eps_38))
(assert (forall ((x_60213 T_5))
	(isAtom_19 (Atom_19 x_60213))))
(assert (forall ((x_60214 R_482) (x_60215 R_482))
	(isx_29 (x_60138 x_60214 x_60215))))
(assert (forall ((x_60216 R_482) (x_60217 R_482))
	(isx_30 (x_60139 x_60216 x_60217))))
(assert (forall ((x_60218 R_482))
	(isStar_19 (Star_19 x_60218))))
(assert (diseqR_19 Nil_338 Eps_38))
(assert (forall ((x_60219 T_5))
	(diseqR_19 Nil_338 (Atom_19 x_60219))))
(assert (forall ((x_60220 R_482) (x_60221 R_482))
	(diseqR_19 Nil_338 (x_60138 x_60220 x_60221))))
(assert (forall ((x_60222 R_482) (x_60223 R_482))
	(diseqR_19 Nil_338 (x_60139 x_60222 x_60223))))
(assert (forall ((x_60224 R_482))
	(diseqR_19 Nil_338 (Star_19 x_60224))))
(assert (diseqR_19 Eps_38 Nil_338))
(assert (forall ((x_60225 T_5))
	(diseqR_19 (Atom_19 x_60225) Nil_338)))
(assert (forall ((x_60226 R_482) (x_60227 R_482))
	(diseqR_19 (x_60138 x_60226 x_60227) Nil_338)))
(assert (forall ((x_60228 R_482) (x_60229 R_482))
	(diseqR_19 (x_60139 x_60228 x_60229) Nil_338)))
(assert (forall ((x_60230 R_482))
	(diseqR_19 (Star_19 x_60230) Nil_338)))
(assert (forall ((x_60231 T_5))
	(diseqR_19 Eps_38 (Atom_19 x_60231))))
(assert (forall ((x_60232 R_482) (x_60233 R_482))
	(diseqR_19 Eps_38 (x_60138 x_60232 x_60233))))
(assert (forall ((x_60234 R_482) (x_60235 R_482))
	(diseqR_19 Eps_38 (x_60139 x_60234 x_60235))))
(assert (forall ((x_60236 R_482))
	(diseqR_19 Eps_38 (Star_19 x_60236))))
(assert (forall ((x_60237 T_5))
	(diseqR_19 (Atom_19 x_60237) Eps_38)))
(assert (forall ((x_60238 R_482) (x_60239 R_482))
	(diseqR_19 (x_60138 x_60238 x_60239) Eps_38)))
(assert (forall ((x_60240 R_482) (x_60241 R_482))
	(diseqR_19 (x_60139 x_60240 x_60241) Eps_38)))
(assert (forall ((x_60242 R_482))
	(diseqR_19 (Star_19 x_60242) Eps_38)))
(assert (forall ((x_60243 T_5) (x_60244 R_482) (x_60245 R_482))
	(diseqR_19 (Atom_19 x_60243) (x_60138 x_60244 x_60245))))
(assert (forall ((x_60246 T_5) (x_60247 R_482) (x_60248 R_482))
	(diseqR_19 (Atom_19 x_60246) (x_60139 x_60247 x_60248))))
(assert (forall ((x_60249 T_5) (x_60250 R_482))
	(diseqR_19 (Atom_19 x_60249) (Star_19 x_60250))))
(assert (forall ((x_60251 R_482) (x_60252 R_482) (x_60253 T_5))
	(diseqR_19 (x_60138 x_60251 x_60252) (Atom_19 x_60253))))
(assert (forall ((x_60254 R_482) (x_60255 R_482) (x_60256 T_5))
	(diseqR_19 (x_60139 x_60254 x_60255) (Atom_19 x_60256))))
(assert (forall ((x_60257 R_482) (x_60258 T_5))
	(diseqR_19 (Star_19 x_60257) (Atom_19 x_60258))))
(assert (forall ((x_60259 R_482) (x_60260 R_482) (x_60261 R_482) (x_60262 R_482))
	(diseqR_19 (x_60138 x_60259 x_60260) (x_60139 x_60261 x_60262))))
(assert (forall ((x_60263 R_482) (x_60264 R_482) (x_60265 R_482))
	(diseqR_19 (x_60138 x_60263 x_60264) (Star_19 x_60265))))
(assert (forall ((x_60266 R_482) (x_60267 R_482) (x_60268 R_482) (x_60269 R_482))
	(diseqR_19 (x_60139 x_60266 x_60267) (x_60138 x_60268 x_60269))))
(assert (forall ((x_60270 R_482) (x_60271 R_482) (x_60272 R_482))
	(diseqR_19 (Star_19 x_60270) (x_60138 x_60271 x_60272))))
(assert (forall ((x_60273 R_482) (x_60274 R_482) (x_60275 R_482))
	(diseqR_19 (x_60139 x_60273 x_60274) (Star_19 x_60275))))
(assert (forall ((x_60276 R_482) (x_60277 R_482) (x_60278 R_482))
	(diseqR_19 (Star_19 x_60276) (x_60139 x_60277 x_60278))))
(assert (forall ((x_60279 T_5) (x_60280 T_5))
	(=> (diseqT_5 x_60279 x_60280) (diseqR_19 (Atom_19 x_60279) (Atom_19 x_60280)))))
(assert (forall ((x_60281 R_482) (x_60282 R_482) (x_60283 R_482) (x_60284 R_482))
	(=> (diseqR_19 x_60281 x_60283) (diseqR_19 (x_60138 x_60281 x_60282) (x_60138 x_60283 x_60284)))))
(assert (forall ((x_60281 R_482) (x_60282 R_482) (x_60283 R_482) (x_60284 R_482))
	(=> (diseqR_19 x_60282 x_60284) (diseqR_19 (x_60138 x_60281 x_60282) (x_60138 x_60283 x_60284)))))
(assert (forall ((x_60285 R_482) (x_60286 R_482) (x_60287 R_482) (x_60288 R_482))
	(=> (diseqR_19 x_60285 x_60287) (diseqR_19 (x_60139 x_60285 x_60286) (x_60139 x_60287 x_60288)))))
(assert (forall ((x_60285 R_482) (x_60286 R_482) (x_60287 R_482) (x_60288 R_482))
	(=> (diseqR_19 x_60286 x_60288) (diseqR_19 (x_60139 x_60285 x_60286) (x_60139 x_60287 x_60288)))))
(assert (forall ((x_60289 R_482) (x_60290 R_482))
	(=> (diseqR_19 x_60289 x_60290) (diseqR_19 (Star_19 x_60289) (Star_19 x_60290)))))
(declare-fun eps_39 (Bool_385 R_482) Bool)
(assert (forall ((y_2608 R_482))
	(eps_39 true_385 (Star_19 y_2608))))
(assert (forall ((x_60147 Bool_385) (x_60148 Bool_385) (x_60149 Bool_385) (r_483 R_482) (q_170 R_482))
	(=> (and (eps_39 x_60148 r_483) (eps_39 x_60149 q_170) (and_386 x_60147 x_60148 x_60149)) (eps_39 x_60147 (x_60139 r_483 q_170)))))
(assert (forall ((x_60150 Bool_385) (x_60151 Bool_385) (x_60152 Bool_385) (p_435 R_482) (q_171 R_482))
	(=> (and (eps_39 x_60151 p_435) (eps_39 x_60152 q_171) (or_398 x_60150 x_60151 x_60152)) (eps_39 x_60150 (x_60138 p_435 q_171)))))
(assert (eps_39 true_385 Eps_38))
(assert (forall ((x_60141 R_482) (x_60145 T_5))
	(eps_39 false_385 (Atom_19 x_60145))))
(assert (forall ((x_60141 R_482))
	(eps_39 false_385 Nil_338)))
(declare-fun step_19 (R_482 R_482 T_5) Bool)
(assert (forall ((x_60157 R_482) (p_436 R_482) (y_2609 T_5))
	(=> (step_19 x_60157 p_436 y_2609) (step_19 (x_60139 x_60157 (Star_19 p_436)) (Star_19 p_436) y_2609))))
(assert (forall ((x_60160 R_482) (x_60161 R_482) (r_484 R_482) (q_172 R_482) (y_2609 T_5))
	(=> (and (step_19 x_60160 r_484 y_2609) (step_19 x_60161 q_172 y_2609) (eps_39 true_385 r_484)) (step_19 (x_60138 (x_60139 x_60160 q_172) x_60161) (x_60139 r_484 q_172) y_2609))))
(assert (forall ((x_60164 R_482) (r_484 R_482) (q_172 R_482) (y_2609 T_5))
	(=> (and (step_19 x_60164 r_484 y_2609) (eps_39 false_385 r_484)) (step_19 (x_60138 (x_60139 x_60164 q_172) Nil_338) (x_60139 r_484 q_172) y_2609))))
(assert (forall ((x_60166 R_482) (x_60167 R_482) (p_437 R_482) (q_173 R_482) (y_2609 T_5))
	(=> (and (step_19 x_60166 p_437 y_2609) (step_19 x_60167 q_173 y_2609)) (step_19 (x_60138 x_60166 x_60167) (x_60138 p_437 q_173) y_2609))))
(assert (forall ((b_57 T_5))
	(step_19 Eps_38 (Atom_19 b_57) b_57)))
(assert (forall ((b_57 T_5) (y_2609 T_5))
	(=> (diseqT_5 b_57 y_2609) (step_19 Nil_338 (Atom_19 b_57) y_2609))))
(assert (forall ((x_60143 R_482) (y_2609 T_5))
	(step_19 Nil_338 Eps_38 y_2609)))
(assert (forall ((x_60143 R_482) (y_2609 T_5))
	(step_19 Nil_338 Nil_338 y_2609)))
(declare-fun rec_5 (Bool_385 R_482 list_305) Bool)
(assert (forall ((x_60172 Bool_385) (x_60173 R_482) (z_2332 T_5) (xs_772 list_305) (x_60144 R_482))
	(=> (and (step_19 x_60173 x_60144 z_2332) (rec_5 x_60172 x_60173 xs_772)) (rec_5 x_60172 x_60144 (cons_302 z_2332 xs_772)))))
(assert (forall ((x_60175 Bool_385) (x_60144 R_482))
	(=> (eps_39 x_60175 x_60144) (rec_5 x_60175 x_60144 nil_337))))
(assert (forall ((x_60177 Bool_385) (x_60178 Bool_385) (p_438 R_482) (q_174 R_482) (s_537 list_305))
	(=> (and true (diseqBool_176 x_60177 x_60178) (rec_5 x_60177 (Star_19 (x_60139 p_438 q_174)) s_537) (rec_5 x_60178 (x_60139 (Star_19 p_438) (Star_19 q_174)) s_537)) false)))
(check-sat)
